 num_bands       = 50
 num_wann        = 10
! exclude_bands  = 1-30

!!! Disentanglement parameters !!!
dis_win_min     =  7.
dis_win_max     = 25.
dis_froz_min     = 10.5
dis_froz_max     = 13.6
!dis_froz_min     = 13.5
!dis_froz_max     = 16.5
!dis_win_min     =-10.
!dis_win_max     = 10.
!dis_froz_min     =-2.
!dis_froz_max     = 2.
!dis_mix_ratio    = 0.5

!!! Iterations &c. !!!
 iprint                = 1
 num_iter              = 1000
 num_print_cycles      =   100
 conv_window           = 3
!conv_tol              = 1e-10
 dis_num_iter          = 10000
!dis_conv_window       = 3
!dis_conv_tol          = 1e-10
!restart               = default ! wannierise ! plot ! transport
!spinors                =.true.

!!! Post-processing options !!!
 write_proj             = .true.
 write_xyz              = .true.
 translate_home_cell    = .true.
 write_hr                = .true.
!fermi_surface_plot     = .true.
!dos                    = .false.
!dos_project            =
!dos_kmesh              = 50 50 1
!dos_energy_min         = -1.8
!dos_energy_max         = +1.5

!!! Band structure !!!
!!! needs `kpoint_path' block
!bands_plot             = .true.
 bands_num_points       = 50
!bands_plot_format      = gnuplot xmgrace
!bands_plot_project     = 1-3
!bands_plot_mode        = s-k | cut [Slater-Koster | truncate Hamiltonian]


begin unit_cell_cart
Bohr
    7.625044946193571 0.000000000000000 0.000000000000000
    0.000000000000000 7.625044946193571 0.000000000000000
    0.000000000000000 0.000000000000000 16.51809612755341
end unit_cell_cart

begin atoms_frac
La      0.250000000    0.250000000    0.142000000
La      0.750000000    0.750000000    0.858000000
 O      0.750000000    0.250000000    0.000000000
 O      0.250000000    0.750000000    0.000000000
Fe      0.750000000    0.250000000    0.500000000
Fe      0.250000000    0.750000000    0.500000000
As      0.250000000    0.250000000    0.651000000
As      0.750000000    0.750000000    0.349000000
end atoms_frac

!!! BZ-Path for band structure !!!
bands_plot = T
begin kpoint_path
  M   0.50000   0.50000   0.00000    R   0.50000   0.50000   0.50000
  R   0.50000   0.50000   0.50000    G   0.00000   0.00000   0.00000
  G   0.00000   0.00000   0.00000    X   0.50000   0.00000   0.00000
  X   0.50000   0.00000   0.00000    M   0.50000   0.50000   0.00000
  M   0.50000   0.50000   0.00000    G   0.00000   0.00000   0.00000
  G   0.00000   0.00000   0.00000    Z   0.00000   0.00000   0.50000
  Z   0.00000   0.00000   0.50000    A   0.50000   0.00000   0.50000
  A   0.50000   0.00000   0.50000    R   0.50000   0.50000   0.50000
  R   0.50000   0.50000   0.50000    Z   0.00000   0.00000   0.50000
end kpoint_path

!!!! Dummy `projections' block for guiding centres !!!
guiding_centres = T
begin projections
  Fe:d
end projections

!!! K-Points !!!

mp_grid : 10 10 10
begin kpoints
  0.00000000  0.00000000  0.00000000 
  0.00000000  0.00000000  0.10000000 
  0.00000000  0.00000000  0.20000000 
  0.00000000  0.00000000  0.30000000 
  0.00000000  0.00000000  0.40000000 
  0.00000000  0.00000000  0.50000000 
  0.00000000  0.00000000  0.60000000 
  0.00000000  0.00000000  0.70000000 
  0.00000000  0.00000000  0.80000000 
  0.00000000  0.00000000  0.90000000 
  0.00000000  0.10000000  0.00000000 
  0.00000000  0.10000000  0.10000000 
  0.00000000  0.10000000  0.20000000 
  0.00000000  0.10000000  0.30000000 
  0.00000000  0.10000000  0.40000000 
  0.00000000  0.10000000  0.50000000 
  0.00000000  0.10000000  0.60000000 
  0.00000000  0.10000000  0.70000000 
  0.00000000  0.10000000  0.80000000 
  0.00000000  0.10000000  0.90000000 
  0.00000000  0.20000000  0.00000000 
  0.00000000  0.20000000  0.10000000 
  0.00000000  0.20000000  0.20000000 
  0.00000000  0.20000000  0.30000000 
  0.00000000  0.20000000  0.40000000 
  0.00000000  0.20000000  0.50000000 
  0.00000000  0.20000000  0.60000000 
  0.00000000  0.20000000  0.70000000 
  0.00000000  0.20000000  0.80000000 
  0.00000000  0.20000000  0.90000000 
  0.00000000  0.30000000  0.00000000 
  0.00000000  0.30000000  0.10000000 
  0.00000000  0.30000000  0.20000000 
  0.00000000  0.30000000  0.30000000 
  0.00000000  0.30000000  0.40000000 
  0.00000000  0.30000000  0.50000000 
  0.00000000  0.30000000  0.60000000 
  0.00000000  0.30000000  0.70000000 
  0.00000000  0.30000000  0.80000000 
  0.00000000  0.30000000  0.90000000 
  0.00000000  0.40000000  0.00000000 
  0.00000000  0.40000000  0.10000000 
  0.00000000  0.40000000  0.20000000 
  0.00000000  0.40000000  0.30000000 
  0.00000000  0.40000000  0.40000000 
  0.00000000  0.40000000  0.50000000 
  0.00000000  0.40000000  0.60000000 
  0.00000000  0.40000000  0.70000000 
  0.00000000  0.40000000  0.80000000 
  0.00000000  0.40000000  0.90000000 
  0.00000000  0.50000000  0.00000000 
  0.00000000  0.50000000  0.10000000 
  0.00000000  0.50000000  0.20000000 
  0.00000000  0.50000000  0.30000000 
  0.00000000  0.50000000  0.40000000 
  0.00000000  0.50000000  0.50000000 
  0.00000000  0.50000000  0.60000000 
  0.00000000  0.50000000  0.70000000 
  0.00000000  0.50000000  0.80000000 
  0.00000000  0.50000000  0.90000000 
  0.00000000  0.60000000  0.00000000 
  0.00000000  0.60000000  0.10000000 
  0.00000000  0.60000000  0.20000000 
  0.00000000  0.60000000  0.30000000 
  0.00000000  0.60000000  0.40000000 
  0.00000000  0.60000000  0.50000000 
  0.00000000  0.60000000  0.60000000 
  0.00000000  0.60000000  0.70000000 
  0.00000000  0.60000000  0.80000000 
  0.00000000  0.60000000  0.90000000 
  0.00000000  0.70000000  0.00000000 
  0.00000000  0.70000000  0.10000000 
  0.00000000  0.70000000  0.20000000 
  0.00000000  0.70000000  0.30000000 
  0.00000000  0.70000000  0.40000000 
  0.00000000  0.70000000  0.50000000 
  0.00000000  0.70000000  0.60000000 
  0.00000000  0.70000000  0.70000000 
  0.00000000  0.70000000  0.80000000 
  0.00000000  0.70000000  0.90000000 
  0.00000000  0.80000000  0.00000000 
  0.00000000  0.80000000  0.10000000 
  0.00000000  0.80000000  0.20000000 
  0.00000000  0.80000000  0.30000000 
  0.00000000  0.80000000  0.40000000 
  0.00000000  0.80000000  0.50000000 
  0.00000000  0.80000000  0.60000000 
  0.00000000  0.80000000  0.70000000 
  0.00000000  0.80000000  0.80000000 
  0.00000000  0.80000000  0.90000000 
  0.00000000  0.90000000  0.00000000 
  0.00000000  0.90000000  0.10000000 
  0.00000000  0.90000000  0.20000000 
  0.00000000  0.90000000  0.30000000 
  0.00000000  0.90000000  0.40000000 
  0.00000000  0.90000000  0.50000000 
  0.00000000  0.90000000  0.60000000 
  0.00000000  0.90000000  0.70000000 
  0.00000000  0.90000000  0.80000000 
  0.00000000  0.90000000  0.90000000 
  0.10000000  0.00000000  0.00000000 
  0.10000000  0.00000000  0.10000000 
  0.10000000  0.00000000  0.20000000 
  0.10000000  0.00000000  0.30000000 
  0.10000000  0.00000000  0.40000000 
  0.10000000  0.00000000  0.50000000 
  0.10000000  0.00000000  0.60000000 
  0.10000000  0.00000000  0.70000000 
  0.10000000  0.00000000  0.80000000 
  0.10000000  0.00000000  0.90000000 
  0.10000000  0.10000000  0.00000000 
  0.10000000  0.10000000  0.10000000 
  0.10000000  0.10000000  0.20000000 
  0.10000000  0.10000000  0.30000000 
  0.10000000  0.10000000  0.40000000 
  0.10000000  0.10000000  0.50000000 
  0.10000000  0.10000000  0.60000000 
  0.10000000  0.10000000  0.70000000 
  0.10000000  0.10000000  0.80000000 
  0.10000000  0.10000000  0.90000000 
  0.10000000  0.20000000  0.00000000 
  0.10000000  0.20000000  0.10000000 
  0.10000000  0.20000000  0.20000000 
  0.10000000  0.20000000  0.30000000 
  0.10000000  0.20000000  0.40000000 
  0.10000000  0.20000000  0.50000000 
  0.10000000  0.20000000  0.60000000 
  0.10000000  0.20000000  0.70000000 
  0.10000000  0.20000000  0.80000000 
  0.10000000  0.20000000  0.90000000 
  0.10000000  0.30000000  0.00000000 
  0.10000000  0.30000000  0.10000000 
  0.10000000  0.30000000  0.20000000 
  0.10000000  0.30000000  0.30000000 
  0.10000000  0.30000000  0.40000000 
  0.10000000  0.30000000  0.50000000 
  0.10000000  0.30000000  0.60000000 
  0.10000000  0.30000000  0.70000000 
  0.10000000  0.30000000  0.80000000 
  0.10000000  0.30000000  0.90000000 
  0.10000000  0.40000000  0.00000000 
  0.10000000  0.40000000  0.10000000 
  0.10000000  0.40000000  0.20000000 
  0.10000000  0.40000000  0.30000000 
  0.10000000  0.40000000  0.40000000 
  0.10000000  0.40000000  0.50000000 
  0.10000000  0.40000000  0.60000000 
  0.10000000  0.40000000  0.70000000 
  0.10000000  0.40000000  0.80000000 
  0.10000000  0.40000000  0.90000000 
  0.10000000  0.50000000  0.00000000 
  0.10000000  0.50000000  0.10000000 
  0.10000000  0.50000000  0.20000000 
  0.10000000  0.50000000  0.30000000 
  0.10000000  0.50000000  0.40000000 
  0.10000000  0.50000000  0.50000000 
  0.10000000  0.50000000  0.60000000 
  0.10000000  0.50000000  0.70000000 
  0.10000000  0.50000000  0.80000000 
  0.10000000  0.50000000  0.90000000 
  0.10000000  0.60000000  0.00000000 
  0.10000000  0.60000000  0.10000000 
  0.10000000  0.60000000  0.20000000 
  0.10000000  0.60000000  0.30000000 
  0.10000000  0.60000000  0.40000000 
  0.10000000  0.60000000  0.50000000 
  0.10000000  0.60000000  0.60000000 
  0.10000000  0.60000000  0.70000000 
  0.10000000  0.60000000  0.80000000 
  0.10000000  0.60000000  0.90000000 
  0.10000000  0.70000000  0.00000000 
  0.10000000  0.70000000  0.10000000 
  0.10000000  0.70000000  0.20000000 
  0.10000000  0.70000000  0.30000000 
  0.10000000  0.70000000  0.40000000 
  0.10000000  0.70000000  0.50000000 
  0.10000000  0.70000000  0.60000000 
  0.10000000  0.70000000  0.70000000 
  0.10000000  0.70000000  0.80000000 
  0.10000000  0.70000000  0.90000000 
  0.10000000  0.80000000  0.00000000 
  0.10000000  0.80000000  0.10000000 
  0.10000000  0.80000000  0.20000000 
  0.10000000  0.80000000  0.30000000 
  0.10000000  0.80000000  0.40000000 
  0.10000000  0.80000000  0.50000000 
  0.10000000  0.80000000  0.60000000 
  0.10000000  0.80000000  0.70000000 
  0.10000000  0.80000000  0.80000000 
  0.10000000  0.80000000  0.90000000 
  0.10000000  0.90000000  0.00000000 
  0.10000000  0.90000000  0.10000000 
  0.10000000  0.90000000  0.20000000 
  0.10000000  0.90000000  0.30000000 
  0.10000000  0.90000000  0.40000000 
  0.10000000  0.90000000  0.50000000 
  0.10000000  0.90000000  0.60000000 
  0.10000000  0.90000000  0.70000000 
  0.10000000  0.90000000  0.80000000 
  0.10000000  0.90000000  0.90000000 
  0.20000000  0.00000000  0.00000000 
  0.20000000  0.00000000  0.10000000 
  0.20000000  0.00000000  0.20000000 
  0.20000000  0.00000000  0.30000000 
  0.20000000  0.00000000  0.40000000 
  0.20000000  0.00000000  0.50000000 
  0.20000000  0.00000000  0.60000000 
  0.20000000  0.00000000  0.70000000 
  0.20000000  0.00000000  0.80000000 
  0.20000000  0.00000000  0.90000000 
  0.20000000  0.10000000  0.00000000 
  0.20000000  0.10000000  0.10000000 
  0.20000000  0.10000000  0.20000000 
  0.20000000  0.10000000  0.30000000 
  0.20000000  0.10000000  0.40000000 
  0.20000000  0.10000000  0.50000000 
  0.20000000  0.10000000  0.60000000 
  0.20000000  0.10000000  0.70000000 
  0.20000000  0.10000000  0.80000000 
  0.20000000  0.10000000  0.90000000 
  0.20000000  0.20000000  0.00000000 
  0.20000000  0.20000000  0.10000000 
  0.20000000  0.20000000  0.20000000 
  0.20000000  0.20000000  0.30000000 
  0.20000000  0.20000000  0.40000000 
  0.20000000  0.20000000  0.50000000 
  0.20000000  0.20000000  0.60000000 
  0.20000000  0.20000000  0.70000000 
  0.20000000  0.20000000  0.80000000 
  0.20000000  0.20000000  0.90000000 
  0.20000000  0.30000000  0.00000000 
  0.20000000  0.30000000  0.10000000 
  0.20000000  0.30000000  0.20000000 
  0.20000000  0.30000000  0.30000000 
  0.20000000  0.30000000  0.40000000 
  0.20000000  0.30000000  0.50000000 
  0.20000000  0.30000000  0.60000000 
  0.20000000  0.30000000  0.70000000 
  0.20000000  0.30000000  0.80000000 
  0.20000000  0.30000000  0.90000000 
  0.20000000  0.40000000  0.00000000 
  0.20000000  0.40000000  0.10000000 
  0.20000000  0.40000000  0.20000000 
  0.20000000  0.40000000  0.30000000 
  0.20000000  0.40000000  0.40000000 
  0.20000000  0.40000000  0.50000000 
  0.20000000  0.40000000  0.60000000 
  0.20000000  0.40000000  0.70000000 
  0.20000000  0.40000000  0.80000000 
  0.20000000  0.40000000  0.90000000 
  0.20000000  0.50000000  0.00000000 
  0.20000000  0.50000000  0.10000000 
  0.20000000  0.50000000  0.20000000 
  0.20000000  0.50000000  0.30000000 
  0.20000000  0.50000000  0.40000000 
  0.20000000  0.50000000  0.50000000 
  0.20000000  0.50000000  0.60000000 
  0.20000000  0.50000000  0.70000000 
  0.20000000  0.50000000  0.80000000 
  0.20000000  0.50000000  0.90000000 
  0.20000000  0.60000000  0.00000000 
  0.20000000  0.60000000  0.10000000 
  0.20000000  0.60000000  0.20000000 
  0.20000000  0.60000000  0.30000000 
  0.20000000  0.60000000  0.40000000 
  0.20000000  0.60000000  0.50000000 
  0.20000000  0.60000000  0.60000000 
  0.20000000  0.60000000  0.70000000 
  0.20000000  0.60000000  0.80000000 
  0.20000000  0.60000000  0.90000000 
  0.20000000  0.70000000  0.00000000 
  0.20000000  0.70000000  0.10000000 
  0.20000000  0.70000000  0.20000000 
  0.20000000  0.70000000  0.30000000 
  0.20000000  0.70000000  0.40000000 
  0.20000000  0.70000000  0.50000000 
  0.20000000  0.70000000  0.60000000 
  0.20000000  0.70000000  0.70000000 
  0.20000000  0.70000000  0.80000000 
  0.20000000  0.70000000  0.90000000 
  0.20000000  0.80000000  0.00000000 
  0.20000000  0.80000000  0.10000000 
  0.20000000  0.80000000  0.20000000 
  0.20000000  0.80000000  0.30000000 
  0.20000000  0.80000000  0.40000000 
  0.20000000  0.80000000  0.50000000 
  0.20000000  0.80000000  0.60000000 
  0.20000000  0.80000000  0.70000000 
  0.20000000  0.80000000  0.80000000 
  0.20000000  0.80000000  0.90000000 
  0.20000000  0.90000000  0.00000000 
  0.20000000  0.90000000  0.10000000 
  0.20000000  0.90000000  0.20000000 
  0.20000000  0.90000000  0.30000000 
  0.20000000  0.90000000  0.40000000 
  0.20000000  0.90000000  0.50000000 
  0.20000000  0.90000000  0.60000000 
  0.20000000  0.90000000  0.70000000 
  0.20000000  0.90000000  0.80000000 
  0.20000000  0.90000000  0.90000000 
  0.30000000  0.00000000  0.00000000 
  0.30000000  0.00000000  0.10000000 
  0.30000000  0.00000000  0.20000000 
  0.30000000  0.00000000  0.30000000 
  0.30000000  0.00000000  0.40000000 
  0.30000000  0.00000000  0.50000000 
  0.30000000  0.00000000  0.60000000 
  0.30000000  0.00000000  0.70000000 
  0.30000000  0.00000000  0.80000000 
  0.30000000  0.00000000  0.90000000 
  0.30000000  0.10000000  0.00000000 
  0.30000000  0.10000000  0.10000000 
  0.30000000  0.10000000  0.20000000 
  0.30000000  0.10000000  0.30000000 
  0.30000000  0.10000000  0.40000000 
  0.30000000  0.10000000  0.50000000 
  0.30000000  0.10000000  0.60000000 
  0.30000000  0.10000000  0.70000000 
  0.30000000  0.10000000  0.80000000 
  0.30000000  0.10000000  0.90000000 
  0.30000000  0.20000000  0.00000000 
  0.30000000  0.20000000  0.10000000 
  0.30000000  0.20000000  0.20000000 
  0.30000000  0.20000000  0.30000000 
  0.30000000  0.20000000  0.40000000 
  0.30000000  0.20000000  0.50000000 
  0.30000000  0.20000000  0.60000000 
  0.30000000  0.20000000  0.70000000 
  0.30000000  0.20000000  0.80000000 
  0.30000000  0.20000000  0.90000000 
  0.30000000  0.30000000  0.00000000 
  0.30000000  0.30000000  0.10000000 
  0.30000000  0.30000000  0.20000000 
  0.30000000  0.30000000  0.30000000 
  0.30000000  0.30000000  0.40000000 
  0.30000000  0.30000000  0.50000000 
  0.30000000  0.30000000  0.60000000 
  0.30000000  0.30000000  0.70000000 
  0.30000000  0.30000000  0.80000000 
  0.30000000  0.30000000  0.90000000 
  0.30000000  0.40000000  0.00000000 
  0.30000000  0.40000000  0.10000000 
  0.30000000  0.40000000  0.20000000 
  0.30000000  0.40000000  0.30000000 
  0.30000000  0.40000000  0.40000000 
  0.30000000  0.40000000  0.50000000 
  0.30000000  0.40000000  0.60000000 
  0.30000000  0.40000000  0.70000000 
  0.30000000  0.40000000  0.80000000 
  0.30000000  0.40000000  0.90000000 
  0.30000000  0.50000000  0.00000000 
  0.30000000  0.50000000  0.10000000 
  0.30000000  0.50000000  0.20000000 
  0.30000000  0.50000000  0.30000000 
  0.30000000  0.50000000  0.40000000 
  0.30000000  0.50000000  0.50000000 
  0.30000000  0.50000000  0.60000000 
  0.30000000  0.50000000  0.70000000 
  0.30000000  0.50000000  0.80000000 
  0.30000000  0.50000000  0.90000000 
  0.30000000  0.60000000  0.00000000 
  0.30000000  0.60000000  0.10000000 
  0.30000000  0.60000000  0.20000000 
  0.30000000  0.60000000  0.30000000 
  0.30000000  0.60000000  0.40000000 
  0.30000000  0.60000000  0.50000000 
  0.30000000  0.60000000  0.60000000 
  0.30000000  0.60000000  0.70000000 
  0.30000000  0.60000000  0.80000000 
  0.30000000  0.60000000  0.90000000 
  0.30000000  0.70000000  0.00000000 
  0.30000000  0.70000000  0.10000000 
  0.30000000  0.70000000  0.20000000 
  0.30000000  0.70000000  0.30000000 
  0.30000000  0.70000000  0.40000000 
  0.30000000  0.70000000  0.50000000 
  0.30000000  0.70000000  0.60000000 
  0.30000000  0.70000000  0.70000000 
  0.30000000  0.70000000  0.80000000 
  0.30000000  0.70000000  0.90000000 
  0.30000000  0.80000000  0.00000000 
  0.30000000  0.80000000  0.10000000 
  0.30000000  0.80000000  0.20000000 
  0.30000000  0.80000000  0.30000000 
  0.30000000  0.80000000  0.40000000 
  0.30000000  0.80000000  0.50000000 
  0.30000000  0.80000000  0.60000000 
  0.30000000  0.80000000  0.70000000 
  0.30000000  0.80000000  0.80000000 
  0.30000000  0.80000000  0.90000000 
  0.30000000  0.90000000  0.00000000 
  0.30000000  0.90000000  0.10000000 
  0.30000000  0.90000000  0.20000000 
  0.30000000  0.90000000  0.30000000 
  0.30000000  0.90000000  0.40000000 
  0.30000000  0.90000000  0.50000000 
  0.30000000  0.90000000  0.60000000 
  0.30000000  0.90000000  0.70000000 
  0.30000000  0.90000000  0.80000000 
  0.30000000  0.90000000  0.90000000 
  0.40000000  0.00000000  0.00000000 
  0.40000000  0.00000000  0.10000000 
  0.40000000  0.00000000  0.20000000 
  0.40000000  0.00000000  0.30000000 
  0.40000000  0.00000000  0.40000000 
  0.40000000  0.00000000  0.50000000 
  0.40000000  0.00000000  0.60000000 
  0.40000000  0.00000000  0.70000000 
  0.40000000  0.00000000  0.80000000 
  0.40000000  0.00000000  0.90000000 
  0.40000000  0.10000000  0.00000000 
  0.40000000  0.10000000  0.10000000 
  0.40000000  0.10000000  0.20000000 
  0.40000000  0.10000000  0.30000000 
  0.40000000  0.10000000  0.40000000 
  0.40000000  0.10000000  0.50000000 
  0.40000000  0.10000000  0.60000000 
  0.40000000  0.10000000  0.70000000 
  0.40000000  0.10000000  0.80000000 
  0.40000000  0.10000000  0.90000000 
  0.40000000  0.20000000  0.00000000 
  0.40000000  0.20000000  0.10000000 
  0.40000000  0.20000000  0.20000000 
  0.40000000  0.20000000  0.30000000 
  0.40000000  0.20000000  0.40000000 
  0.40000000  0.20000000  0.50000000 
  0.40000000  0.20000000  0.60000000 
  0.40000000  0.20000000  0.70000000 
  0.40000000  0.20000000  0.80000000 
  0.40000000  0.20000000  0.90000000 
  0.40000000  0.30000000  0.00000000 
  0.40000000  0.30000000  0.10000000 
  0.40000000  0.30000000  0.20000000 
  0.40000000  0.30000000  0.30000000 
  0.40000000  0.30000000  0.40000000 
  0.40000000  0.30000000  0.50000000 
  0.40000000  0.30000000  0.60000000 
  0.40000000  0.30000000  0.70000000 
  0.40000000  0.30000000  0.80000000 
  0.40000000  0.30000000  0.90000000 
  0.40000000  0.40000000  0.00000000 
  0.40000000  0.40000000  0.10000000 
  0.40000000  0.40000000  0.20000000 
  0.40000000  0.40000000  0.30000000 
  0.40000000  0.40000000  0.40000000 
  0.40000000  0.40000000  0.50000000 
  0.40000000  0.40000000  0.60000000 
  0.40000000  0.40000000  0.70000000 
  0.40000000  0.40000000  0.80000000 
  0.40000000  0.40000000  0.90000000 
  0.40000000  0.50000000  0.00000000 
  0.40000000  0.50000000  0.10000000 
  0.40000000  0.50000000  0.20000000 
  0.40000000  0.50000000  0.30000000 
  0.40000000  0.50000000  0.40000000 
  0.40000000  0.50000000  0.50000000 
  0.40000000  0.50000000  0.60000000 
  0.40000000  0.50000000  0.70000000 
  0.40000000  0.50000000  0.80000000 
  0.40000000  0.50000000  0.90000000 
  0.40000000  0.60000000  0.00000000 
  0.40000000  0.60000000  0.10000000 
  0.40000000  0.60000000  0.20000000 
  0.40000000  0.60000000  0.30000000 
  0.40000000  0.60000000  0.40000000 
  0.40000000  0.60000000  0.50000000 
  0.40000000  0.60000000  0.60000000 
  0.40000000  0.60000000  0.70000000 
  0.40000000  0.60000000  0.80000000 
  0.40000000  0.60000000  0.90000000 
  0.40000000  0.70000000  0.00000000 
  0.40000000  0.70000000  0.10000000 
  0.40000000  0.70000000  0.20000000 
  0.40000000  0.70000000  0.30000000 
  0.40000000  0.70000000  0.40000000 
  0.40000000  0.70000000  0.50000000 
  0.40000000  0.70000000  0.60000000 
  0.40000000  0.70000000  0.70000000 
  0.40000000  0.70000000  0.80000000 
  0.40000000  0.70000000  0.90000000 
  0.40000000  0.80000000  0.00000000 
  0.40000000  0.80000000  0.10000000 
  0.40000000  0.80000000  0.20000000 
  0.40000000  0.80000000  0.30000000 
  0.40000000  0.80000000  0.40000000 
  0.40000000  0.80000000  0.50000000 
  0.40000000  0.80000000  0.60000000 
  0.40000000  0.80000000  0.70000000 
  0.40000000  0.80000000  0.80000000 
  0.40000000  0.80000000  0.90000000 
  0.40000000  0.90000000  0.00000000 
  0.40000000  0.90000000  0.10000000 
  0.40000000  0.90000000  0.20000000 
  0.40000000  0.90000000  0.30000000 
  0.40000000  0.90000000  0.40000000 
  0.40000000  0.90000000  0.50000000 
  0.40000000  0.90000000  0.60000000 
  0.40000000  0.90000000  0.70000000 
  0.40000000  0.90000000  0.80000000 
  0.40000000  0.90000000  0.90000000 
  0.50000000  0.00000000  0.00000000 
  0.50000000  0.00000000  0.10000000 
  0.50000000  0.00000000  0.20000000 
  0.50000000  0.00000000  0.30000000 
  0.50000000  0.00000000  0.40000000 
  0.50000000  0.00000000  0.50000000 
  0.50000000  0.00000000  0.60000000 
  0.50000000  0.00000000  0.70000000 
  0.50000000  0.00000000  0.80000000 
  0.50000000  0.00000000  0.90000000 
  0.50000000  0.10000000  0.00000000 
  0.50000000  0.10000000  0.10000000 
  0.50000000  0.10000000  0.20000000 
  0.50000000  0.10000000  0.30000000 
  0.50000000  0.10000000  0.40000000 
  0.50000000  0.10000000  0.50000000 
  0.50000000  0.10000000  0.60000000 
  0.50000000  0.10000000  0.70000000 
  0.50000000  0.10000000  0.80000000 
  0.50000000  0.10000000  0.90000000 
  0.50000000  0.20000000  0.00000000 
  0.50000000  0.20000000  0.10000000 
  0.50000000  0.20000000  0.20000000 
  0.50000000  0.20000000  0.30000000 
  0.50000000  0.20000000  0.40000000 
  0.50000000  0.20000000  0.50000000 
  0.50000000  0.20000000  0.60000000 
  0.50000000  0.20000000  0.70000000 
  0.50000000  0.20000000  0.80000000 
  0.50000000  0.20000000  0.90000000 
  0.50000000  0.30000000  0.00000000 
  0.50000000  0.30000000  0.10000000 
  0.50000000  0.30000000  0.20000000 
  0.50000000  0.30000000  0.30000000 
  0.50000000  0.30000000  0.40000000 
  0.50000000  0.30000000  0.50000000 
  0.50000000  0.30000000  0.60000000 
  0.50000000  0.30000000  0.70000000 
  0.50000000  0.30000000  0.80000000 
  0.50000000  0.30000000  0.90000000 
  0.50000000  0.40000000  0.00000000 
  0.50000000  0.40000000  0.10000000 
  0.50000000  0.40000000  0.20000000 
  0.50000000  0.40000000  0.30000000 
  0.50000000  0.40000000  0.40000000 
  0.50000000  0.40000000  0.50000000 
  0.50000000  0.40000000  0.60000000 
  0.50000000  0.40000000  0.70000000 
  0.50000000  0.40000000  0.80000000 
  0.50000000  0.40000000  0.90000000 
  0.50000000  0.50000000  0.00000000 
  0.50000000  0.50000000  0.10000000 
  0.50000000  0.50000000  0.20000000 
  0.50000000  0.50000000  0.30000000 
  0.50000000  0.50000000  0.40000000 
  0.50000000  0.50000000  0.50000000 
  0.50000000  0.50000000  0.60000000 
  0.50000000  0.50000000  0.70000000 
  0.50000000  0.50000000  0.80000000 
  0.50000000  0.50000000  0.90000000 
  0.50000000  0.60000000  0.00000000 
  0.50000000  0.60000000  0.10000000 
  0.50000000  0.60000000  0.20000000 
  0.50000000  0.60000000  0.30000000 
  0.50000000  0.60000000  0.40000000 
  0.50000000  0.60000000  0.50000000 
  0.50000000  0.60000000  0.60000000 
  0.50000000  0.60000000  0.70000000 
  0.50000000  0.60000000  0.80000000 
  0.50000000  0.60000000  0.90000000 
  0.50000000  0.70000000  0.00000000 
  0.50000000  0.70000000  0.10000000 
  0.50000000  0.70000000  0.20000000 
  0.50000000  0.70000000  0.30000000 
  0.50000000  0.70000000  0.40000000 
  0.50000000  0.70000000  0.50000000 
  0.50000000  0.70000000  0.60000000 
  0.50000000  0.70000000  0.70000000 
  0.50000000  0.70000000  0.80000000 
  0.50000000  0.70000000  0.90000000 
  0.50000000  0.80000000  0.00000000 
  0.50000000  0.80000000  0.10000000 
  0.50000000  0.80000000  0.20000000 
  0.50000000  0.80000000  0.30000000 
  0.50000000  0.80000000  0.40000000 
  0.50000000  0.80000000  0.50000000 
  0.50000000  0.80000000  0.60000000 
  0.50000000  0.80000000  0.70000000 
  0.50000000  0.80000000  0.80000000 
  0.50000000  0.80000000  0.90000000 
  0.50000000  0.90000000  0.00000000 
  0.50000000  0.90000000  0.10000000 
  0.50000000  0.90000000  0.20000000 
  0.50000000  0.90000000  0.30000000 
  0.50000000  0.90000000  0.40000000 
  0.50000000  0.90000000  0.50000000 
  0.50000000  0.90000000  0.60000000 
  0.50000000  0.90000000  0.70000000 
  0.50000000  0.90000000  0.80000000 
  0.50000000  0.90000000  0.90000000 
  0.60000000  0.00000000  0.00000000 
  0.60000000  0.00000000  0.10000000 
  0.60000000  0.00000000  0.20000000 
  0.60000000  0.00000000  0.30000000 
  0.60000000  0.00000000  0.40000000 
  0.60000000  0.00000000  0.50000000 
  0.60000000  0.00000000  0.60000000 
  0.60000000  0.00000000  0.70000000 
  0.60000000  0.00000000  0.80000000 
  0.60000000  0.00000000  0.90000000 
  0.60000000  0.10000000  0.00000000 
  0.60000000  0.10000000  0.10000000 
  0.60000000  0.10000000  0.20000000 
  0.60000000  0.10000000  0.30000000 
  0.60000000  0.10000000  0.40000000 
  0.60000000  0.10000000  0.50000000 
  0.60000000  0.10000000  0.60000000 
  0.60000000  0.10000000  0.70000000 
  0.60000000  0.10000000  0.80000000 
  0.60000000  0.10000000  0.90000000 
  0.60000000  0.20000000  0.00000000 
  0.60000000  0.20000000  0.10000000 
  0.60000000  0.20000000  0.20000000 
  0.60000000  0.20000000  0.30000000 
  0.60000000  0.20000000  0.40000000 
  0.60000000  0.20000000  0.50000000 
  0.60000000  0.20000000  0.60000000 
  0.60000000  0.20000000  0.70000000 
  0.60000000  0.20000000  0.80000000 
  0.60000000  0.20000000  0.90000000 
  0.60000000  0.30000000  0.00000000 
  0.60000000  0.30000000  0.10000000 
  0.60000000  0.30000000  0.20000000 
  0.60000000  0.30000000  0.30000000 
  0.60000000  0.30000000  0.40000000 
  0.60000000  0.30000000  0.50000000 
  0.60000000  0.30000000  0.60000000 
  0.60000000  0.30000000  0.70000000 
  0.60000000  0.30000000  0.80000000 
  0.60000000  0.30000000  0.90000000 
  0.60000000  0.40000000  0.00000000 
  0.60000000  0.40000000  0.10000000 
  0.60000000  0.40000000  0.20000000 
  0.60000000  0.40000000  0.30000000 
  0.60000000  0.40000000  0.40000000 
  0.60000000  0.40000000  0.50000000 
  0.60000000  0.40000000  0.60000000 
  0.60000000  0.40000000  0.70000000 
  0.60000000  0.40000000  0.80000000 
  0.60000000  0.40000000  0.90000000 
  0.60000000  0.50000000  0.00000000 
  0.60000000  0.50000000  0.10000000 
  0.60000000  0.50000000  0.20000000 
  0.60000000  0.50000000  0.30000000 
  0.60000000  0.50000000  0.40000000 
  0.60000000  0.50000000  0.50000000 
  0.60000000  0.50000000  0.60000000 
  0.60000000  0.50000000  0.70000000 
  0.60000000  0.50000000  0.80000000 
  0.60000000  0.50000000  0.90000000 
  0.60000000  0.60000000  0.00000000 
  0.60000000  0.60000000  0.10000000 
  0.60000000  0.60000000  0.20000000 
  0.60000000  0.60000000  0.30000000 
  0.60000000  0.60000000  0.40000000 
  0.60000000  0.60000000  0.50000000 
  0.60000000  0.60000000  0.60000000 
  0.60000000  0.60000000  0.70000000 
  0.60000000  0.60000000  0.80000000 
  0.60000000  0.60000000  0.90000000 
  0.60000000  0.70000000  0.00000000 
  0.60000000  0.70000000  0.10000000 
  0.60000000  0.70000000  0.20000000 
  0.60000000  0.70000000  0.30000000 
  0.60000000  0.70000000  0.40000000 
  0.60000000  0.70000000  0.50000000 
  0.60000000  0.70000000  0.60000000 
  0.60000000  0.70000000  0.70000000 
  0.60000000  0.70000000  0.80000000 
  0.60000000  0.70000000  0.90000000 
  0.60000000  0.80000000  0.00000000 
  0.60000000  0.80000000  0.10000000 
  0.60000000  0.80000000  0.20000000 
  0.60000000  0.80000000  0.30000000 
  0.60000000  0.80000000  0.40000000 
  0.60000000  0.80000000  0.50000000 
  0.60000000  0.80000000  0.60000000 
  0.60000000  0.80000000  0.70000000 
  0.60000000  0.80000000  0.80000000 
  0.60000000  0.80000000  0.90000000 
  0.60000000  0.90000000  0.00000000 
  0.60000000  0.90000000  0.10000000 
  0.60000000  0.90000000  0.20000000 
  0.60000000  0.90000000  0.30000000 
  0.60000000  0.90000000  0.40000000 
  0.60000000  0.90000000  0.50000000 
  0.60000000  0.90000000  0.60000000 
  0.60000000  0.90000000  0.70000000 
  0.60000000  0.90000000  0.80000000 
  0.60000000  0.90000000  0.90000000 
  0.70000000  0.00000000  0.00000000 
  0.70000000  0.00000000  0.10000000 
  0.70000000  0.00000000  0.20000000 
  0.70000000  0.00000000  0.30000000 
  0.70000000  0.00000000  0.40000000 
  0.70000000  0.00000000  0.50000000 
  0.70000000  0.00000000  0.60000000 
  0.70000000  0.00000000  0.70000000 
  0.70000000  0.00000000  0.80000000 
  0.70000000  0.00000000  0.90000000 
  0.70000000  0.10000000  0.00000000 
  0.70000000  0.10000000  0.10000000 
  0.70000000  0.10000000  0.20000000 
  0.70000000  0.10000000  0.30000000 